clingo version 5.2.2
Reading from ...pr180_u540_o12_N010_encoding-a_maxP.lp ...
Solving...
Solving...
Solving...
Solving...
Solving...
Solving...
Solving...
Solving...
Solving...
Solving...
Solving...
Solving...
Solving...
Solving...
Solving...
Solving...
Solving...
Solving...
Solving...
Solving...
Solving...
Solving...
Solving...
Solving...
Solving...
Solving...
Solving...
Solving...
Solving...
Solving...
Solving...
Solving...
Solving...
Solving...
Solving...
Solving...
Solving...
Solving...
Solving...
Solving...
Solving...
Solving...
Solving...
Solving...
Solving...
Solving...
Solving...
Solving...
Solving...
Solving...
Solving...
Solving...
Solving...
Solving...
Solving...
Solving...
Solving...
Solving...
Solving...
Solving...
Solving...
Solving...
Solving...
Solving...
Solving...
Solving...
Solving...
Solving...
Solving...
Solving...
Solving...
Solving...
Solving...
Solving...
Solving...
Solving...
Solving...
Solving...
Solving...
Solving...
Solving...
Solving...
Solving...
Solving...
Solving...
Solving...
Solving...
Solving...
Solving...
Solving...
Solving...
Solving...
Solving...
Solving...
Solving...
Solving...
Solving...
Solving...
Solving...
Solving...
Solving...
Solving...
Solving...
Solving...
Solving...
Solving...
Solving...
Solving...
Solving...
Solving...
Solving...
Solving...
Solving...
Solving...
Solving...
Solving...
Solving...
Solving...
Solving...
Solving...
Solving...
Solving...
Solving...
Solving...
Solving...
Solving...
Solving...
Solving...
Solving...
Solving...
Solving...
Solving...
Solving...
Solving...
Solving...
Solving...
Solving...
Solving...
Solving...
Solving...
Solving...
Solving...
Solving...
Solving...
Solving...
Solving...
Solving...
Solving...
Solving...
Solving...
Solving...
Solving...
Solving...
Solving...
Solving...
Solving...
Solving...
Solving...
Solving...
Solving...
Solving...
Solving...
Solving...
Solving...
Solving...
Solving...
Solving...
Solving...
Solving...
Solving...
Solving...
Solving...
Solving...
Solving...
Solving...
Solving...
Solving...
Solving...
Solving...
Solving...
Solving...
Solving...
Solving...
Solving...
Solving...
Solving...
Solving...
Solving...
Solving...
Solving...
Solving...
Solving...
Solving...
Solving...
Solving...
Solving...
UNKNOWN

TIME LIMIT   : 1
Models       : 0+
Calls        : 197
Time         : 1800.278s (Solving: 88.92s 1st Model: 0.00s Unsat: 88.92s)
CPU Time     : 599.396s

Choices      : 13733   
Conflicts    : 9721     (Analyzed: 9544)
Restarts     : 37       (Average: 257.95 Last: 114)
Problems     : 198      (Average Length: 2.00 Splits: 0)
Lemmas       : 9544     (Deleted: 0)
  Binary     : 533      (Ratio:   5.58%)
  Ternary    : 995      (Ratio:  10.43%)
  Conflict   : 9544     (Average Length:   10.1 Ratio: 100.00%) 
  Loop       : 0        (Average Length:    0.0 Ratio:   0.00%) 
  Other      : 0        (Average Length:    0.0 Ratio:   0.00%) 
Backjumps    : 9544     (Average:  1.49 Max:  39 Sum:  14193)
  Executed   : 9028     (Average:  1.43 Max:  39 Sum:  13674 Ratio:  96.34%)
  Bounded    : 516      (Average:  1.01 Max:   2 Sum:    519 Ratio:   3.66%)

Rules        : 20280426 (Original: 16236151)
  Choice     : 1365    
Atoms        : 8608194  (Original: 7515442 Auxiliary: 1092752)
Bodies       : 16123819 (Original: 13233999)
  Count      : 25556    (Original: 94199)
Equivalences : 17285735 (Atom=Atom: 5395213 Body=Body: 59017 Other: 11831505)
Tight        : Yes
Variables    : 3710192  (Eliminated:    0 Frozen: 325319)
Constraints  : 13431975 (Binary:  69.9% Ternary:  27.7% Other:   2.4%)

